c FILE: i080-112

c SOURCE: From steinlib

c DESCRIPTION: Steinlib instance with 80 nodes and 350 edges.

p edge 80 350
e 1 10
e 1 16
e 1 17
e 1 19
e 1 20
e 1 21
e 1 23
e 1 35
e 1 37
e 1 46
e 1 52
e 1 53
e 1 61
e 1 63
e 1 64
e 1 65
e 1 68
e 1 78
e 1 80
e 2 11
e 2 12
e 2 18
e 2 26
e 2 54
e 2 63
e 2 70
e 3 11
e 3 16
e 3 24
e 3 33
e 3 43
e 3 47
e 3 48
e 4 18
e 4 43
e 4 45
e 4 46
e 4 71
e 5 18
e 5 27
e 5 32
e 5 37
e 5 43
e 5 44
e 5 48
e 5 60
e 5 70
e 5 71
e 5 76
e 6 11
e 6 16
e 6 29
e 6 41
e 6 44
e 6 51
e 6 55
e 6 61
e 6 62
e 6 72
e 6 74
e 6 77
e 6 79
e 7 9
e 7 12
e 7 21
e 7 37
e 7 38
e 7 39
e 7 51
e 7 53
e 7 65
e 7 68
e 7 71
e 7 79
e 8 39
e 8 46
e 8 66
e 8 69
e 8 75
e 8 78
e 9 34
e 9 43
e 9 45
e 9 54
e 9 56
e 10 13
e 10 15
e 10 20
e 10 23
e 10 41
e 10 42
e 10 43
e 10 48
e 10 53
e 10 79
e 11 25
e 11 33
e 11 37
e 11 49
e 11 68
e 11 69
e 11 76
e 11 79
e 12 26
e 12 57
e 12 62
e 12 67
e 12 78
e 13 27
e 13 39
e 13 44
e 13 57
e 13 64
e 13 66
e 13 78
e 14 39
e 14 41
e 14 45
e 14 49
e 14 71
e 15 20
e 15 26
e 15 35
e 15 54
e 15 57
e 15 76
e 16 36
e 16 46
e 16 66
e 16 75
e 16 77
e 17 21
e 17 30
e 17 31
e 17 59
e 17 63
e 17 69
e 17 72
e 17 80
e 18 27
e 18 40
e 18 48
e 18 55
e 18 59
e 18 60
e 18 68
e 18 78
e 19 35
e 19 42
e 19 57
e 19 68
e 19 73
e 20 62
e 20 80
e 21 44
e 21 45
e 21 46
e 21 54
e 21 63
e 21 66
e 21 69
e 21 71
e 21 74
e 21 76
e 21 77
e 22 29
e 22 38
e 22 39
e 22 47
e 23 37
e 23 50
e 23 57
e 23 60
e 23 76
e 24 25
e 24 26
e 24 80
e 25 31
e 25 32
e 25 33
e 25 35
e 25 44
e 25 54
e 25 62
e 26 28
e 26 37
e 26 56
e 26 58
e 26 67
e 27 35
e 27 41
e 27 46
e 27 49
e 27 64
e 28 31
e 28 43
e 28 48
e 28 49
e 28 64
e 28 75
e 28 78
e 28 80
e 29 33
e 29 44
e 29 55
e 29 65
e 29 66
e 29 71
e 29 74
e 30 33
e 30 44
e 30 53
e 30 57
e 30 64
e 30 80
e 31 32
e 31 34
e 31 38
e 31 41
e 31 45
e 31 50
e 31 57
e 31 61
e 31 75
e 32 34
e 32 45
e 32 61
e 32 72
e 32 76
e 32 77
e 33 62
e 33 80
e 34 51
e 34 53
e 34 60
e 34 61
e 34 64
e 34 65
e 34 69
e 34 75
e 34 79
e 35 39
e 35 49
e 35 54
e 35 70
e 35 74
e 36 38
e 36 46
e 36 72
e 37 42
e 37 58
e 37 60
e 37 63
e 37 65
e 37 71
e 38 50
e 38 53
e 38 60
e 38 64
e 38 71
e 38 72
e 38 74
e 38 78
e 39 47
e 39 60
e 39 64
e 39 66
e 39 72
e 40 42
e 40 50
e 40 52
e 40 57
e 40 59
e 40 61
e 40 73
e 40 74
e 41 68
e 41 69
e 41 77
e 42 45
e 42 46
e 42 66
e 43 53
e 43 73
e 43 79
e 44 52
e 44 65
e 45 48
e 45 78
e 46 47
e 46 51
e 46 59
e 46 61
e 47 51
e 47 52
e 47 54
e 47 65
e 47 69
e 47 73
e 47 75
e 48 52
e 48 57
e 48 61
e 48 66
e 48 73
e 49 68
e 50 54
e 50 61
e 50 64
e 50 65
e 50 72
e 50 76
e 51 64
e 52 53
e 52 56
e 52 63
e 52 80
e 53 61
e 53 69
e 53 70
e 54 66
e 54 76
e 55 57
e 55 77
e 56 58
e 56 62
e 56 71
e 56 73
e 56 78
e 57 74
e 58 61
e 58 78
e 59 71
e 59 80
e 60 65
e 60 66
e 60 74
e 60 76
e 61 67
e 61 69
e 63 68
e 63 79
e 64 66
e 66 78
e 68 75
e 68 77
e 70 77
e 73 76
e 74 76
e 76 80
